NAME          
ROWS
 N  OBJ
 L  c1
 L  c2
 L  c3
 L  c4
COLUMNS
    MARKER    'MARKER'                 'INTORG'
    x[1]      c1        520
    x[1]      c2        885
    x[1]      c3        53
    x[1]      c4        879
    x[1]      OBJ       -434
    x[2]      c1        874
    x[2]      c2        978
    x[2]      c3        236
    x[2]      c4        499
    x[2]      OBJ       -872
    x[3]      c1        123
    x[3]      c2        779
    x[3]      c3        773
    x[3]      c4        209
    x[3]      OBJ       -713
    x[4]      c1        409
    x[4]      c2        102
    x[4]      c3        527
    x[4]      c4        932
    x[4]      OBJ       -117
    x[5]      c1        523
    x[5]      c2        871
    x[5]      c3        246
    x[5]      c4        829
    x[5]      OBJ       -760
    x[6]      c1        650
    x[6]      c2        609
    x[6]      c3        185
    x[6]      c4        900
    x[6]      OBJ       -229
    x[7]      c1        859
    x[7]      c2        441
    x[7]      c3        643
    x[7]      c4        214
    x[7]      OBJ       -125
    x[8]      c1        175
    x[8]      c2        538
    x[8]      c3        875
    x[8]      c4        310
    x[8]      OBJ       -735
    x[9]      c1        893
    x[9]      c2        455
    x[9]      c3        573
    x[9]      c4        542
    x[9]      OBJ       -563
    x[10]     c1        260
    x[10]     c2        884
    x[10]     c3        877
    x[10]     c4        141
    x[10]     OBJ       -69
    x[11]     c1        576
    x[11]     c2        458
    x[11]     c3        828
    x[11]     c4        932
    x[11]     OBJ       -82
    x[12]     c1        723
    x[12]     c2        208
    x[12]     c3        766
    x[12]     c4        389
    x[12]     OBJ       -369
    x[13]     c1        741
    x[13]     c2        472
    x[13]     c3        307
    x[13]     c4        438
    x[13]     OBJ       -474
    x[14]     c1        316
    x[14]     c2        666
    x[14]     c3        329
    x[14]     c4        803
    x[14]     OBJ       -255
    x[15]     c1        382
    x[15]     c2        275
    x[15]     c3        349
    x[15]     c4        800
    x[15]     OBJ       -377
    x[16]     c1        32
    x[16]     c2        51
    x[16]     c3        266
    x[16]     c4        244
    x[16]     OBJ       -577
    x[17]     c1        725
    x[17]     c2        967
    x[17]     c3        15
    x[17]     c4        108
    x[17]     OBJ       -206
    x[18]     c1        578
    x[18]     c2        459
    x[18]     c3        517
    x[18]     c4        76
    x[18]     OBJ       -591
    x[19]     c1        275
    x[19]     c2        304
    x[19]     c3        547
    x[19]     c4        24
    x[19]     OBJ       -536
    x[20]     c1        269
    x[20]     c2        307
    x[20]     c3        143
    x[20]     c4        383
    x[20]     OBJ       -336
    x[21]     c1        390
    x[21]     c2        554
    x[21]     c3        435
    x[21]     c4        417
    x[21]     OBJ       -197
    x[22]     c1        144
    x[22]     c2        602
    x[22]     c3        851
    x[22]     c4        541
    x[22]     OBJ       -290
    x[23]     c1        20
    x[23]     c2        220
    x[23]     c3        908
    x[23]     c4        28
    x[23]     OBJ       -164
    x[24]     c1        838
    x[24]     c2        179
    x[24]     c3        56
    x[24]     c4        419
    x[24]     OBJ       -437
    x[25]     c1        491
    x[25]     c2        966
    x[25]     c3        262
    x[25]     c4        60
    x[25]     OBJ       -218
    x[26]     c1        689
    x[26]     c2        865
    x[26]     c3        545
    x[26]     c4        537
    x[26]     OBJ       -687
    x[27]     c1        446
    x[27]     c2        544
    x[27]     c3        581
    x[27]     c4        667
    x[27]     OBJ       -49
    x[28]     c1        980
    x[28]     c2        699
    x[28]     c3        771
    x[28]     c4        807
    x[28]     OBJ       -716
    x[29]     c1        606
    x[29]     c2        598
    x[29]     c3        366
    x[29]     c4        889
    x[29]     OBJ       -135
    x[30]     c1        991
    x[30]     c2        577
    x[30]     c3        336
    x[30]     c4        394
    x[30]     OBJ       -924
    x[31]     c1        853
    x[31]     c2        651
    x[31]     c3        692
    x[31]     c4        955
    x[31]     OBJ       -390
    x[32]     c1        673
    x[32]     c2        499
    x[32]     c3        232
    x[32]     c4        863
    x[32]     OBJ       -740
    x[33]     c1        674
    x[33]     c2        220
    x[33]     c3        818
    x[33]     c4        189
    x[33]     OBJ       -828
    x[34]     c1        449
    x[34]     c2        541
    x[34]     c3        699
    x[34]     c4        947
    x[34]     OBJ       -591
    x[35]     c1        204
    x[35]     c2        684
    x[35]     c3        364
    x[35]     c4        534
    x[35]     OBJ       -805
    x[36]     c1        548
    x[36]     c2        524
    x[36]     c3        966
    x[36]     c4        968
    x[36]     OBJ       -59
    x[37]     c1        238
    x[37]     c2        433
    x[37]     c3        125
    x[37]     c4        281
    x[37]     OBJ       -301
    x[38]     c1        217
    x[38]     c2        485
    x[38]     c3        87
    x[38]     c4        899
    x[38]     OBJ       -958
    x[39]     c1        315
    x[39]     c2        655
    x[39]     c3        347
    x[39]     c4        351
    x[39]     OBJ       -635
    x[40]     c1        328
    x[40]     c2        238
    x[40]     c3        471
    x[40]     c4        500
    x[40]     OBJ       -531
    x[41]     c1        900
    x[41]     c2        60
    x[41]     c3        926
    x[41]     c4        186
    x[41]     OBJ       -801
    x[42]     c1        583
    x[42]     c2        889
    x[42]     c3        166
    x[42]     c4        603
    x[42]     OBJ       -585
    x[43]     c1        782
    x[43]     c2        578
    x[43]     c3        609
    x[43]     c4        400
    x[43]     OBJ       -394
    x[44]     c1        229
    x[44]     c2        529
    x[44]     c3        567
    x[44]     c4        470
    x[44]     OBJ       -134
    x[45]     c1        341
    x[45]     c2        374
    x[45]     c3        582
    x[45]     c4        26
    x[45]     OBJ       -47
RHS
    rhs       c1        11416
    rhs       c2        11936
    rhs       c3        10908
    rhs       c4        11292
RANGES
BOUNDS
 BV bounds    x[1]
 BV bounds    x[2]
 BV bounds    x[3]
 BV bounds    x[4]
 BV bounds    x[5]
 BV bounds    x[6]
 BV bounds    x[7]
 BV bounds    x[8]
 BV bounds    x[9]
 BV bounds    x[10]
 BV bounds    x[11]
 BV bounds    x[12]
 BV bounds    x[13]
 BV bounds    x[14]
 BV bounds    x[15]
 BV bounds    x[16]
 BV bounds    x[17]
 BV bounds    x[18]
 BV bounds    x[19]
 BV bounds    x[20]
 BV bounds    x[21]
 BV bounds    x[22]
 BV bounds    x[23]
 BV bounds    x[24]
 BV bounds    x[25]
 BV bounds    x[26]
 BV bounds    x[27]
 BV bounds    x[28]
 BV bounds    x[29]
 BV bounds    x[30]
 BV bounds    x[31]
 BV bounds    x[32]
 BV bounds    x[33]
 BV bounds    x[34]
 BV bounds    x[35]
 BV bounds    x[36]
 BV bounds    x[37]
 BV bounds    x[38]
 BV bounds    x[39]
 BV bounds    x[40]
 BV bounds    x[41]
 BV bounds    x[42]
 BV bounds    x[43]
 BV bounds    x[44]
 BV bounds    x[45]
ENDATA
